0 0 0 0
0 1 2 0
0 2 1 0
0 3 1 0
0 4 2 9
0 5 0 10
0 6 2 11
0 7 2 3
0 8 2 19
0 9 2 10
0 10 2 19
0 11 2 27
0 12 0 20
0 13 1 28
0 14 2 20
0 15 2 24
0 16 2 33
0 17 2 24
0 18 1 10
0 19 2 28
0 20 2 37
0 21 0 19
0 22 0 41
0 23 2 37
0 24 0 44
0 25 2 27
0 26 0 40
0 27 0 44
0 28 0 45
0 29 2 41
0 30 0 45
0 31 0 50
